p cnf 10 26
-10 8 5 0
10 -8 -5 0
-10 6 3 0
10 4 -1 0
-10 4 -1 0
10 -2 1 0
-10 2 -1 0
-9 -8 -7 0
9 -8 -2 0
9 8 -2 0
9 -8 -1 0
9 -6 -4 0
9 -6 4 0
-9 6 3 0
9 -5 -3 0
-9 5 2 0
9 -5 1 0
-9 -2 1 0
8 7 5 0
8 7 -2 0
8 -2 1 0
7 5 3 0
7 -5 3 0
7 5 2 0
7 3 2 0
-5 4 -1 0
